<number of tasks>
250

<cycle time>
1000

<order strength>
0.895


<task times>
1 73
2 231
3 485
4 84
5 105
6 148
7 117
8 237
9 357
10 35
11 87
12 78
13 82
14 163
15 27
16 59
17 397
18 193
19 28
20 261
21 163
22 341
23 103
24 59
25 494
26 126
27 185
28 102
29 37
30 520
31 519
32 461
33 50
34 241
35 426
36 116
37 93
38 57
39 194
40 181
41 447
42 475
43 26
44 491
45 384
46 134
47 82
48 598
49 294
50 488
51 532
52 167
53 117
54 136
55 322
56 33
57 72
58 203
59 65
60 210
61 164
62 464
63 234
64 130
65 25
66 194
67 62
68 188
69 186
70 310
71 144
72 301
73 44
74 136
75 246
76 436
77 530
78 506
79 49
80 446
81 249
82 318
83 489
84 295
85 452
86 143
87 308
88 198
89 181
90 154
91 66
92 46
93 136
94 337
95 258
96 39
97 115
98 251
99 122
100 90
101 77
102 28
103 537
104 135
105 23
106 462
107 202
108 27
109 323
110 172
111 284
112 85
113 33
114 80
115 22
116 494
117 258
118 293
119 246
120 254
121 347
122 122
123 208
124 140
125 134
126 127
127 44
128 76
129 84
130 76
131 342
132 445
133 170
134 179
135 73
136 271
137 125
138 115
139 60
140 435
141 285
142 116
143 214
144 211
145 70
146 559
147 432
148 145
149 34
150 498
151 122
152 21
153 241
154 135
155 128
156 286
157 140
158 133
159 164
160 301
161 494
162 271
163 496
164 119
165 508
166 481
167 82
168 69
169 98
170 229
171 55
172 257
173 151
174 375
175 280
176 59
177 303
178 192
179 338
180 28
181 130
182 39
183 404
184 568
185 105
186 87
187 318
188 159
189 184
190 362
191 226
192 326
193 255
194 466
195 273
196 52
197 49
198 509
199 179
200 186
201 30
202 34
203 135
204 481
205 186
206 64
207 140
208 82
209 77
210 276
211 430
212 154
213 61
214 93
215 178
216 78
217 558
218 158
219 151
220 521
221 480
222 85
223 276
224 63
225 94
226 483
227 181
228 119
229 309
230 147
231 509
232 71
233 29
234 198
235 28
236 128
237 67
238 303
239 57
240 129
241 37
242 152
243 90
244 164
245 217
246 229
247 540
248 194
249 178
250 161

<precedence relations>
1,85
2,7
2,8
2,9
2,10
2,11
3,7
3,8
3,9
3,10
4,7
4,8
4,9
4,10
4,11
5,7
5,8
5,9
5,10
5,11
6,7
6,8
6,9
6,10
6,11
7,12
7,13
7,14
7,15
7,16
8,12
8,13
8,14
8,15
8,16
9,12
9,13
9,14
9,15
9,16
10,12
10,13
10,14
10,15
10,16
11,12
11,13
11,14
11,15
11,16
12,17
12,18
12,19
13,17
13,18
13,19
14,17
14,18
14,19
15,17
15,18
15,19
16,17
16,18
16,19
17,20
17,21
17,22
17,23
17,24
17,25
18,20
18,21
18,22
18,23
18,24
18,25
19,20
19,21
19,22
19,23
19,24
19,25
20,26
20,27
20,28
20,29
21,26
21,27
21,28
21,29
22,26
22,27
22,28
22,29
23,26
23,27
23,28
23,29
24,26
24,27
24,28
24,29
25,26
25,27
25,28
25,29
26,30
26,31
26,32
26,33
26,34
27,30
27,33
27,34
28,32
28,33
28,34
29,30
29,31
29,32
29,33
29,34
30,35
30,36
30,37
31,35
31,36
31,37
32,35
32,36
32,37
33,35
34,35
34,36
34,37
35,38
35,39
35,40
35,41
36,38
36,39
36,40
36,41
37,38
37,39
37,40
37,41
38,106
38,107
39,42
39,43
39,44
40,42
41,43
41,44
41,45
42,46
42,47
42,48
43,46
43,47
43,48
44,46
44,48
45,69
46,49
46,50
46,51
47,49
47,50
47,51
48,49
48,50
48,51
49,52
49,53
49,54
50,52
50,53
50,54
51,52
51,53
51,54
52,55
52,56
52,57
52,58
52,59
53,55
53,56
53,57
53,58
53,59
54,55
54,56
54,57
54,58
54,59
55,60
56,60
56,61
56,62
56,63
57,60
57,61
57,62
57,63
58,60
58,61
58,62
58,63
59,60
59,61
59,62
60,64
60,68
61,65
61,66
61,67
61,68
61,69
62,64
62,65
62,66
63,64
63,65
63,69
64,70
64,71
64,72
64,73
65,71
65,72
66,70
66,71
66,72
66,73
67,70
67,72
67,73
68,70
68,73
69,70
69,71
69,72
69,73
70,74
70,75
70,76
70,77
71,74
71,75
71,77
72,74
72,75
73,74
73,75
73,77
74,78
74,79
74,85
75,78
75,79
75,80
76,78
76,79
76,80
77,78
77,79
78,81
78,82
78,83
78,84
78,87
79,81
79,86
79,88
80,83
80,85
81,105
81,106
81,107
82,89
82,90
83,89
83,90
84,89
84,90
85,89
85,90
86,98
87,94
87,95
87,97
88,89
88,90
89,91
89,92
90,92
91,97
91,100
92,93
92,94
92,95
92,96
92,97
93,98
93,99
93,100
93,101
93,102
94,98
94,99
94,100
94,101
94,102
95,98
95,99
95,100
95,101
95,102
96,98
96,103
97,98
97,101
98,108
98,109
98,110
98,111
99,103
99,104
99,105
99,106
99,107
100,103
100,104
101,103
101,105
102,104
103,128
103,129
103,130
104,108
104,109
105,108
105,109
105,110
105,111
106,108
106,109
106,110
106,111
107,108
107,109
107,110
107,111
108,112
109,112
110,112
111,112
112,113
112,114
112,115
112,116
112,117
113,118
113,119
113,120
113,121
114,118
114,119
114,120
114,121
115,118
115,119
115,120
115,121
116,118
116,119
116,120
117,118
117,150
118,122
119,122
119,123
119,125
120,122
120,124
120,140
120,142
121,177
122,155
123,126
123,127
123,129
123,145
123,156
124,126
124,135
124,145
125,126
125,128
125,130
126,131
127,147
128,131
128,132
128,133
128,134
129,144
129,173
129,194
130,131
130,132
130,134
131,136
132,135
132,136
132,137
132,138
132,145
133,135
133,136
133,145
134,135
134,137
134,139
134,140
135,141
135,144
136,143
137,142
137,150
138,141
139,144
139,158
140,145
141,146
142,147
143,152
144,180
145,166
146,147
146,148
146,149
146,150
146,151
147,152
147,157
148,152
148,154
149,156
150,152
150,153
150,154
151,152
151,155
152,160
152,167
152,169
153,158
153,159
154,158
154,159
155,158
155,159
156,158
156,159
157,158
157,159
158,160
158,161
158,162
158,163
159,160
159,161
159,162
159,163
160,165
161,203
161,206
162,164
162,166
163,173
163,207
163,208
164,167
164,168
164,169
165,168
165,176
165,179
166,167
166,168
166,169
167,177
167,188
167,236
168,229
168,242
169,170
169,171
169,172
169,173
170,175
170,180
171,183
171,198
172,174
172,176
172,178
173,177
173,219
174,180
174,190
175,190
175,192
175,197
176,181
176,182
177,187
177,205
177,244
178,179
178,199
179,184
179,187
179,200
180,183
180,188
180,198
181,183
181,185
181,186
181,189
181,193
182,183
182,187
183,191
183,195
184,191
184,216
184,217
185,192
185,194
187,190
187,193
187,225
187,237
188,199
188,249
189,223
190,198
191,201
191,224
193,196
193,232
194,197
194,199
194,203
195,196
195,197
195,200
196,202
196,243
197,242
198,226
199,204
199,205
199,207
200,203
201,206
201,210
202,209
202,218
203,208
204,209
205,210
205,216
205,233
206,220
206,241
208,212
208,213
209,214
210,211
210,238
211,240
212,215
213,216
213,217
214,226
215,218
215,220
215,226
216,221
216,223
217,219
217,222
217,223
218,241
219,226
219,227
219,230
219,236
219,237
220,225
220,229
221,250
222,224
223,226
223,228
223,247
224,231
224,236
224,237
225,233
226,238
227,234
229,247
230,232
230,235
230,240
231,239
232,239
233,238
234,240
235,242
235,243
235,244
236,241
236,248
238,248
239,247
240,246
241,246
242,249
242,250
244,245
244,247

<end>
